FILENAME:   /home/mcs001/s132664/testsets/IP/miplib2017/8div-n59k12.mps.gz
SETTINGS:   settings_isopr_minimalindexbranching_avoidsubtreenodes
TIMELIMIT:  7200
OUTPUTNAME: final_miplib_symretope_if_extended_generating_set_cpx_v802__settings_isopr_minimalindexbranching_avoidsubtreenodes__0__
BINNAME:    bin/symmetries.linux.x86_64.gnu.opt.cpx
BASENAME:   8div-n59k12.mps.gz
SEED:       0
@01 /home/mcs001/s132664/testsets/IP/miplib2017/8div-n59k12.mps.gz ===========
@02 8div-n59k12.mps.gz
@03 1686559608
SCIP version 8.0.2 [precision: 8 byte] [memory: block] [mode: optimized] [LP solver: CPLEX 20.1.0.0] [GitHash: 5f0473c]
Copyright (C) 2002-2022 Konrad-Zuse-Zentrum fuer Informationstechnik Berlin (ZIB)

Symmetry handling routines - (c) Marc Pfetsch, Thomas Rehn, Christopher Hojny.
[GitHash: a1587cb]


Turned off presolver <gateextraction>.
reading parameter file <../settings/settings_isopr_minimalindexbranching_avoidsubtreenodes.set> ...

Changed settings:
limits/time = 7200
limits/restarts = 0
constraints/orbitope/sepafreq = -1
constraints/orbitope/propfreq = 1
presolving/gateextraction/maxrounds = 0
propagating/isoprune/avoidsubtreenodes = TRUE
useisoprune = TRUE
usebranchfirst = TRUE


solving problem ...

original problem has 24575 variables (24570 bin, 5 int, 0 impl, 0 cont) and 8211 constraints
presolving:
(round 1, fast)       12 del vars, 12 del conss, 2 add conss, 23 chg bounds, 0 chg sides, 0 chg coeffs, 0 upgd conss, 0 impls, 4095 clqs
(round 2, exhaustive) 12 del vars, 13 del conss, 2 add conss, 23 chg bounds, 6 chg sides, 6 chg coeffs, 0 upgd conss, 0 impls, 4095 clqs
(round 3, exhaustive) 12 del vars, 13 del conss, 2 add conss, 23 chg bounds, 6 chg sides, 6 chg coeffs, 4095 upgd conss, 0 impls, 4095 clqs
   (9.6s) probing: 1000/24558 (4.1%) - 0 fixings, 0 aggregations, 999 implications, 0 bound changes
   (9.6s) probing: 1001/24558 (4.1%) - 0 fixings, 0 aggregations, 1000 implications, 0 bound changes
   (9.6s) probing aborted: 1000/1000 successive useless probings
Required symmetry:			(1 bin, 0 int, 0 cont); (fixed: 0 bin, 1 int, 0 cont)
Time for symmetry detection:		21.20 	(matrix graph, 61451 nodes, 16846864 edges)
Number of generators:			11 	(max: 1500)
Log10 of symmetry group order:		8.7
Number of vars moved by some symmetry:	24552
Total time for symmetry detection:	21.22

Turned off presolver <domcol>.
Turned off presolver <components>.

presolving (4 rounds: 4 fast, 3 medium, 3 exhaustive):
 12 deleted vars, 13 deleted constraints, 2 added constraints, 23 tightened bounds, 0 added holes, 6 changed sides, 6 changed coefficients
 1000 implications, 4095 cliques
presolved problem has 24563 variables (24558 bin, 5 int, 0 impl, 0 cont) and 8201 constraints
   4095 constraints of type <setppc>
   4105 constraints of type <linear>
      1 constraints of type <symmetries>
transformed objective value is always integral (scale: 1)
Presolving Time: 29.48

 time | node  | left  |LP iter|LP it/n|mem/heur|mdpt |frac |vars |cons |cols |rows |cuts |confs|strbr|  dualbound   | primalbound  |  gap   
 79.5s|     1 |     0 |   532 |     - |  3299M |   0 |7435 |  24k|8201 |  24k|8200 |   0 |   0 |   0 |-2.845000e+03 |      --      |    Inf 
  833s|     1 |     0 | 20532 |     - |  3304M |   0 |7435 |  24k|8207 |  24k|8200 |   0 |   6 |   0 |-2.845000e+03 |      --      |    Inf 
  842s|     1 |     0 | 20532 |     - |  3304M |   0 |7435 |  24k|8207 |  24k|8200 |   0 |   6 |   0 |-2.845000e+03 |      --      |    Inf 
  852s|     1 |     0 | 20532 |     - |  3308M |   0 |7435 |  24k|8209 |  24k|8202 |   0 |   6 |   0 |-2.845000e+03 |      --      |    Inf 
  921s|     1 |     2 | 20532 |     - |  3309M |   0 |7435 |  24k|8209 |  24k|8202 |   0 |   6 |   0 |-2.845000e+03 |      --      |    Inf 

SCIP Status        : solving was interrupted [time limit reached]
Solving Time (sec) : 7200.72
Solving Nodes      : 2
Primal Bound       : +1.00000000000000e+20 (0 solutions)
Dual Bound         : -2.84500000000000e+03
Gap                : infinite

Number of variables fixed to 0 by isomorphism pruning:	    65
Number of variables fixed to 1 by isomorphism pruning:	     0
@04 1686566817
